unsat
((set-logic NIA)
(declare-fun k!2 () Int)
(declare-fun c!3 () Int)
(declare-fun n!0 () Int)
(declare-fun m!1 () Int)
(proof
(let ((?x889 (* k!2 k!2)))
 (let ((?x411 (* n!0 c!3)))
 (let ((?x364 (* (- 9) ?x411)))
 (let ((?x832 (* (- 5) k!2)))
 (let ((?x594 (* 9 n!0)))
 (let ((?x909 (+ ?x594 (* (- 18) c!3) ?x832 ?x364 ?x889)))
 (let (($x384 (<= ?x909 (- 4))))
 (let (($x367 (= ?x909 (- 4))))
 (let ((?x921 (* m!1 m!1)))
 (let ((?x498 (* (- 5) m!1)))
 (let ((?x475 (* k!2 m!1)))
 (let ((?x245 (* 2 ?x475)))
 (let ((?x352 (* n!0 k!2)))
 (let ((?x526 (* (- 9) ?x352)))
 (let ((?x458 (* (- 32) k!2)))
 (let ((?x470 (* (- 27) c!3)))
 (let ((?x904 (* (- 3) ?x889)))
 (let ((?x879 (* n!0 n!0)))
 (let ((?x336 (* (- 6) ?x879)))
 (let ((?x838 (* (- 3) (* c!3 k!2))))
 (let ((?x779 (+ c!3 k!2)))
 (let ((?x359 (+ k!2 m!1)))
 (let ((?x407 (+ 1 n!0)))
 (let ((?x885 (* (- 1) (* ?x407 ?x407 ?x359 ?x359 ?x779 ?x779))))
 (let ((?x734 (* (- 3) (* c!3 m!1))))
 (let ((?x908 (* (- 3) ?x475)))
 (let ((?x323 (* (- 12) n!0)))
 (let ((?x590 (+ (- 6) ?x323 (* (- 6) (* n!0 k!2 m!1)) (* (- 6) (* n!0 c!3 m!1)) (* (- 3) (* n!0 n!0 c!3 m!1)) ?x908 (* (- 3) (* n!0 n!0 k!2 k!2)) (* (- 3) (* n!0 n!0 c!3 k!2)) (* (- 6) (* n!0 k!2 k!2)) (* (- 6) (* n!0 c!3 k!2)) (* (- 3) (* n!0 n!0 k!2 m!1)) ?x734 ?x885 ?x838 ?x336 ?x904)))
 (let (($x312 (= (* ?x590 (+ 13 ?x594 ?x470 ?x458 ?x526 ?x364 ?x245 ?x498 ?x889 ?x921)) 0)))
 (let ((?x792 (* (- 1) m!1)))
 (let ((?x775 (+ (* 6 n!0) ?x792)))
 (let (($x791 (= ?x775 (- 6))))
 (let (($x824 (not $x791)))
 (let ((?x461 (* (- 3) c!3)))
 (let ((?x576 (* 2 n!0)))
 (let ((?x149 (+ ?x576 ?x461 (* n!0 m!1) (* (- 3) k!2) ?x352)))
 (let (($x313 (or (not (= (+ ?x594 ?x470 ?x458 ?x526 ?x364 ?x245 ?x498 ?x889 ?x921) (- 13))) (not (= (+ ?x594 (* (- 1) k!2) ?x792 (* 3 ?x879)) (- 6))) (not (= ?x149 (- 2))) $x824 (not $x312))))
 (let ((?x198 (* 3 ?x879)))
 (let ((?x472 (* (- 1) k!2)))
 (let ((?x405 (+ (* 3 n!0) ?x472 ?x198)))
 (let (($x418 (= ?x405 0)))
 (let ((?x812 (+ ?x576 ?x461 ?x472 ?x352)))
 (let (($x473 (= ?x812 0)))
 (let (($x457 (and $x791 $x367 $x473 $x418 $x313)))
 (let ((?x918 (* k!2 n!0)))
 (let ((?x919 (* (- 1) ?x918)))
 (let ((?x912 (* (- 2) n!0)))
 (let ((?x370 (* 3 c!3)))
 (let (($x400 (= (+ ?x370 (* 3 k!2) ?x912 ?x919 (* (- 1) (* m!1 n!0))) 2)))
 (let ((?x874 (* c!3 n!0)))
 (let ((?x851 (* 9 ?x874)))
 (let ((?x875 (* (- 1) ?x889)))
 (let ((?x819 (* (- 9) n!0)))
 (let ((?x316 (+ (* 27 c!3) (* 32 k!2) (* 5 m!1) ?x819 ?x875 (* 9 ?x918) ?x851 (* (- 2) ?x475) (* (- 1) ?x921))))
 (let ((?x922 (+ 13 ?x470 ?x458 ?x498 ?x594 ?x889 (* (- 9) ?x918) (* (- 9) ?x874) ?x245 ?x921)))
 (let ((?x865 (+ (- 6) ?x323 ?x904 ?x336 ?x885 ?x908 (* (- 3) (* c!3 k!2 n!0 n!0)) (* (- 3) (* k!2 k!2 n!0 n!0)) (* (- 3) (* c!3 m!1 n!0 n!0)) (* (- 3) (* k!2 m!1 n!0 n!0)) ?x838 ?x734 (* (- 6) (* c!3 k!2 n!0)) (* (- 6) (* k!2 k!2 n!0)) (* (- 6) (* c!3 m!1 n!0)) (* (- 6) (* k!2 m!1 n!0)))))
 (let (($x412 (or (not (= (+ k!2 m!1 ?x819 (* (- 3) ?x879)) 6)) (not (= (+ m!1 (* (- 6) n!0)) 6)) (not (= (* ?x865 ?x922) 0)) (not (= ?x316 13)) (not $x400))))
 (let (($x863 (= (+ m!1 (* (- 6) n!0)) 6)))
 (let (($x413 (and $x863 (= (+ (* 18 c!3) (* 5 k!2) ?x819 ?x875 ?x851) 4) (= (+ ?x370 k!2 ?x912 ?x919) 0) (= (+ k!2 (* (- 3) n!0) (* (- 3) ?x879)) 0) $x412)))
 (let (($x402 (exists ((c Int) (k Int) (m Int) (n Int) )(! (let ((?x52 (* k n)))
 (let ((?x264 (* (- 1) ?x52)))
 (let ((?x263 (* (- 2) n)))
 (let ((?x261 (* 3 c)))
 (let (($x607 (= (+ ?x261 (* 3 k) ?x263 ?x264 (* (- 1) (* m n))) 2)))
 (let (($x615 (not $x607)))
 (let ((?x159 (* c n)))
 (let ((?x161 (* 9 ?x159)))
 (let ((?x46 (* k k)))
 (let ((?x224 (* (- 1) ?x46)))
 (let ((?x223 (* (- 9) n)))
 (let ((?x436 (* 5 m)))
 (let ((?x524 (+ (* 27 c) (* 32 k) ?x436 ?x223 ?x224 (* 9 ?x52) ?x161 (* (- 2) (* k m)) (* (- 1) (* m m)))))
 (let (($x528 (not (= ?x524 13))))
 (let ((?x487 (* m m)))
 (let ((?x45 (* 9 n)))
 (let ((?x453 (* (- 5) m)))
 (let ((?x508 (+ 13 (* (- 27) c) (* (- 32) k) ?x453 ?x45 ?x46 (* (- 9) ?x52) (* (- 9) ?x159) (* 2 (* k m)) ?x487)))
 (let ((?x932 (* (- 6) (* k m n))))
 (let ((?x931 (* (- 6) (* c m n))))
 (let ((?x930 (* (- 6) (* k k n))))
 (let ((?x929 (* (- 6) (* c k n))))
 (let ((?x884 (* (- 3) (* c m))))
 (let ((?x877 (* (- 3) (* c k))))
 (let ((?x923 (* (- 3) (* k m n n))))
 (let ((?x920 (* (- 3) (* c m n n))))
 (let ((?x917 (* (- 3) (* k k n n))))
 (let ((?x914 (* (- 3) (* c k n n))))
 (let ((?x486 (* k m)))
 (let ((?x887 (* (- 3) ?x486)))
 (let ((?x71 (+ c k)))
 (let ((?x74 (+ k m)))
 (let ((?x816 (+ 1 n)))
 (let ((?x434 (* (- 1) (* ?x816 ?x816 ?x74 ?x74 ?x71 ?x71))))
 (let ((?x271 (* n n)))
 (let ((?x781 (* (- 6) ?x271)))
 (let ((?x880 (* (- 3) ?x46)))
 (let ((?x790 (* (- 12) n)))
 (let ((?x882 (+ (- 6) ?x790 ?x880 ?x781 ?x434 ?x887 ?x914 ?x917 ?x920 ?x923 ?x877 ?x884 ?x929 ?x930 ?x931 ?x932)))
 (let (($x144 (= (+ m (* (- 6) n)) 6)))
 (let (($x362 (not $x144)))
 (let (($x324 (or (not (= (+ k m ?x223 (* (- 3) ?x271)) 6)) $x362 (not (= (* ?x882 ?x508) 0)) $x528 $x615)))
 (let (($x302 (= (+ k (* (- 3) n) (* (- 3) ?x271)) 0)))
 (let (($x266 (= (+ ?x261 k ?x263 ?x264) 0)))
 (let (($x221 (= (+ (* 18 c) (* 5 k) ?x223 ?x224 ?x161) 4)))
 (and $x144 $x221 $x266 $x302 $x324)))))))))))))))))))))))))))))))))))))))))))))) :qid k!38))
 ))
 (let (($x176 (exists ((c Int) (k Int) (m Int) (n Int) )(! (let ((?x263 (* (- 2) n)))
 (let ((?x261 (* 3 c)))
 (let ((?x113 (+ ?x261 (* 4 k) (* (- 1) (* (+ 1 n) (+ k m))) m ?x263)))
 (let ((?x223 (* (- 9) n)))
 (let ((?x436 (* 5 m)))
 (let ((?x37 (* 18 c)))
 (let ((?x471 (+ ?x37 (* 23 k) (* 9 (* (+ 1 n) (+ c k))) ?x436 ?x223 (* (- 1) (* (+ k m) (+ k m))))))
 (let ((?x61 (* 3 n)))
 (let ((?x468 (* (- 1) m)))
 (let ((?x857 (* (- 1) k)))
 (let (($x752 (= (+ (* 3 (* (+ 1 n) (+ 1 n))) ?x857 ?x468 ?x61) (- 3))))
 (let (($x757 (not $x752)))
 (let ((?x74 (+ k m)))
 (let ((?x80 (* ?x74 ?x74)))
 (let ((?x45 (* 9 n)))
 (let ((?x453 (* (- 5) m)))
 (let ((?x71 (+ c k)))
 (let ((?x816 (+ 1 n)))
 (let ((?x924 (* ?x816 ?x71)))
 (let ((?x112 (* (- 9) ?x924)))
 (let ((?x393 (* (- 23) k)))
 (let ((?x133 (* (- 18) c)))
 (let ((?x434 (* (- 1) (* ?x816 ?x816 ?x74 ?x74 ?x71 ?x71))))
 (let ((?x942 (* (+ ?x434 (* (- 6) (* ?x816 ?x816)) (* (- 3) (* ?x816 ?x816 ?x74 ?x71))) (+ 13 ?x133 ?x393 ?x112 ?x453 ?x45 ?x80))))
 (let (($x371 (not (= ?x942 0))))
 (let (($x144 (= (+ m (* (- 6) n)) 6)))
 (let (($x362 (not $x144)))
 (let (($x893 (= (+ (* 3 (* n n)) ?x857 ?x61) 0)))
 (let ((?x46 (* k k)))
 (let ((?x224 (* (- 1) ?x46)))
 (let ((?x41 (* 5 k)))
 (and $x144 (= (+ ?x37 (* 9 (* n c)) ?x41 ?x223 ?x224) 4) (= (+ ?x261 (* (- 1) (* n k)) k ?x263) 0) $x893 (or $x362 $x371 $x757 (not (= ?x471 13)) (not (= ?x113 2))))))))))))))))))))))))))))))))))) :qid k!38))
 ))
 (let ((?x406 (lambda ((c Int) (k Int) (m Int) (n Int) )(let ((?x52 (* k n)))
 (let ((?x264 (* (- 1) ?x52)))
 (let ((?x263 (* (- 2) n)))
 (let ((?x261 (* 3 c)))
 (let (($x607 (= (+ ?x261 (* 3 k) ?x263 ?x264 (* (- 1) (* m n))) 2)))
 (let (($x615 (not $x607)))
 (let ((?x159 (* c n)))
 (let ((?x161 (* 9 ?x159)))
 (let ((?x46 (* k k)))
 (let ((?x224 (* (- 1) ?x46)))
 (let ((?x223 (* (- 9) n)))
 (let ((?x436 (* 5 m)))
 (let ((?x524 (+ (* 27 c) (* 32 k) ?x436 ?x223 ?x224 (* 9 ?x52) ?x161 (* (- 2) (* k m)) (* (- 1) (* m m)))))
 (let (($x528 (not (= ?x524 13))))
 (let ((?x487 (* m m)))
 (let ((?x45 (* 9 n)))
 (let ((?x453 (* (- 5) m)))
 (let ((?x508 (+ 13 (* (- 27) c) (* (- 32) k) ?x453 ?x45 ?x46 (* (- 9) ?x52) (* (- 9) ?x159) (* 2 (* k m)) ?x487)))
 (let ((?x932 (* (- 6) (* k m n))))
 (let ((?x931 (* (- 6) (* c m n))))
 (let ((?x930 (* (- 6) (* k k n))))
 (let ((?x929 (* (- 6) (* c k n))))
 (let ((?x884 (* (- 3) (* c m))))
 (let ((?x877 (* (- 3) (* c k))))
 (let ((?x923 (* (- 3) (* k m n n))))
 (let ((?x920 (* (- 3) (* c m n n))))
 (let ((?x917 (* (- 3) (* k k n n))))
 (let ((?x914 (* (- 3) (* c k n n))))
 (let ((?x486 (* k m)))
 (let ((?x887 (* (- 3) ?x486)))
 (let ((?x71 (+ c k)))
 (let ((?x74 (+ k m)))
 (let ((?x816 (+ 1 n)))
 (let ((?x434 (* (- 1) (* ?x816 ?x816 ?x74 ?x74 ?x71 ?x71))))
 (let ((?x271 (* n n)))
 (let ((?x781 (* (- 6) ?x271)))
 (let ((?x880 (* (- 3) ?x46)))
 (let ((?x790 (* (- 12) n)))
 (let ((?x882 (+ (- 6) ?x790 ?x880 ?x781 ?x434 ?x887 ?x914 ?x917 ?x920 ?x923 ?x877 ?x884 ?x929 ?x930 ?x931 ?x932)))
 (let (($x144 (= (+ m (* (- 6) n)) 6)))
 (let (($x362 (not $x144)))
 (let (($x324 (or (not (= (+ k m ?x223 (* (- 3) ?x271)) 6)) $x362 (not (= (* ?x882 ?x508) 0)) $x528 $x615)))
 (let (($x302 (= (+ k (* (- 3) n) (* (- 3) ?x271)) 0)))
 (let (($x266 (= (+ ?x261 k ?x263 ?x264) 0)))
 (let (($x221 (= (+ (* 18 c) (* 5 k) ?x223 ?x224 ?x161) 4)))
 (let (($x158 (and $x144 $x221 $x266 $x302 $x324)))
 (let (($x503 (= (+ ?x261 (* 4 k) (* (- 1) (* ?x816 ?x74)) m ?x263) 2)))
 (let ((?x37 (* 18 c)))
 (let ((?x471 (+ ?x37 (* 23 k) (* 9 (* ?x816 ?x71)) ?x436 ?x223 (* (- 1) (* ?x74 ?x74)))))
 (let ((?x61 (* 3 n)))
 (let ((?x468 (* (- 1) m)))
 (let ((?x857 (* (- 1) k)))
 (let (($x757 (not (= (+ (* 3 (* ?x816 ?x816)) ?x857 ?x468 ?x61) (- 3)))))
 (let ((?x80 (* ?x74 ?x74)))
 (let ((?x924 (* ?x816 ?x71)))
 (let ((?x112 (* (- 9) ?x924)))
 (let ((?x393 (* (- 23) k)))
 (let ((?x133 (* (- 18) c)))
 (let ((?x942 (* (+ ?x434 (* (- 6) (* ?x816 ?x816)) (* (- 3) (* ?x816 ?x816 ?x74 ?x71))) (+ 13 ?x133 ?x393 ?x112 ?x453 ?x45 ?x80))))
 (let (($x371 (not (= ?x942 0))))
 (let (($x893 (= (+ (* 3 ?x271) ?x857 ?x61) 0)))
 (let (($x460 (= (+ ?x37 (* 9 (* n c)) (* 5 k) ?x223 ?x224) 4)))
 (let (($x167 (and $x144 $x460 (= (+ ?x261 (* (- 1) (* n k)) k ?x263) 0) $x893 (or $x362 $x371 $x757 (not (= ?x471 13)) (not $x503)))))
 (rewrite (= $x167 $x158))))))))))))))))))))))))))))))))))))))))))))))))))))))))))))))))))
 ))
 (let (($x916 (exists ((c Int) (k Int) (m Int) (n Int) )(! (let ((?x61 (* 3 n)))
 (let ((?x468 (* (- 1) m)))
 (let ((?x857 (* (- 1) k)))
 (let (($x752 (= (+ (* 3 (* (+ 1 n) (+ 1 n))) ?x857 ?x468 ?x61) (- 3))))
 (let (($x757 (not $x752)))
 (let ((?x56 (* 2 n)))
 (let ((?x74 (+ k m)))
 (let ((?x816 (+ 1 n)))
 (let ((?x438 (* ?x816 ?x74)))
 (let ((?x575 (* (- 3) c)))
 (let ((?x80 (* ?x74 ?x74)))
 (let ((?x45 (* 9 n)))
 (let ((?x453 (* (- 5) m)))
 (let ((?x71 (+ c k)))
 (let ((?x924 (* ?x816 ?x71)))
 (let ((?x112 (* (- 9) ?x924)))
 (let ((?x393 (* (- 23) k)))
 (let ((?x133 (* (- 18) c)))
 (let ((?x434 (* (- 1) (* ?x816 ?x816 ?x74 ?x74 ?x71 ?x71))))
 (let ((?x942 (* (+ ?x434 (* (- 6) (* ?x816 ?x816)) (* (- 3) (* ?x816 ?x816 ?x74 ?x71))) (+ 13 ?x133 ?x393 ?x112 ?x453 ?x45 ?x80))))
 (let (($x371 (not (= ?x942 0))))
 (let (($x144 (= (+ m (* (- 6) n)) 6)))
 (let (($x362 (not $x144)))
 (let (($x396 (or $x362 $x371 (not (= (+ ?x133 ?x393 ?x112 ?x453 ?x45 ?x80) (- 13))) (not (= (+ ?x575 (* (- 4) k) ?x438 ?x468 ?x56) (- 2))) $x757)))
 (let (($x893 (= (+ (* 3 (* n n)) ?x857 ?x61) 0)))
 (let (($x553 (= (+ ?x133 (* (- 9) (* n c)) (* (- 5) k) ?x45 (* k k)) (- 4))))
 (and $x144 $x553 (= (+ ?x575 (* n k) ?x857 ?x56) 0) $x893 $x396))))))))))))))))))))))))))) :qid k!38))
 ))
 (let ((?x903 (lambda ((c Int) (k Int) (m Int) (n Int) )(let ((?x263 (* (- 2) n)))
 (let ((?x261 (* 3 c)))
 (let ((?x113 (+ ?x261 (* 4 k) (* (- 1) (* (+ 1 n) (+ k m))) m ?x263)))
 (let ((?x223 (* (- 9) n)))
 (let ((?x436 (* 5 m)))
 (let ((?x37 (* 18 c)))
 (let ((?x471 (+ ?x37 (* 23 k) (* 9 (* (+ 1 n) (+ c k))) ?x436 ?x223 (* (- 1) (* (+ k m) (+ k m))))))
 (let ((?x61 (* 3 n)))
 (let ((?x468 (* (- 1) m)))
 (let ((?x857 (* (- 1) k)))
 (let (($x752 (= (+ (* 3 (* (+ 1 n) (+ 1 n))) ?x857 ?x468 ?x61) (- 3))))
 (let (($x757 (not $x752)))
 (let ((?x74 (+ k m)))
 (let ((?x80 (* ?x74 ?x74)))
 (let ((?x45 (* 9 n)))
 (let ((?x453 (* (- 5) m)))
 (let ((?x71 (+ c k)))
 (let ((?x816 (+ 1 n)))
 (let ((?x924 (* ?x816 ?x71)))
 (let ((?x112 (* (- 9) ?x924)))
 (let ((?x393 (* (- 23) k)))
 (let ((?x133 (* (- 18) c)))
 (let ((?x434 (* (- 1) (* ?x816 ?x816 ?x74 ?x74 ?x71 ?x71))))
 (let ((?x942 (* (+ ?x434 (* (- 6) (* ?x816 ?x816)) (* (- 3) (* ?x816 ?x816 ?x74 ?x71))) (+ 13 ?x133 ?x393 ?x112 ?x453 ?x45 ?x80))))
 (let (($x371 (not (= ?x942 0))))
 (let (($x144 (= (+ m (* (- 6) n)) 6)))
 (let (($x362 (not $x144)))
 (let (($x893 (= (+ (* 3 (* n n)) ?x857 ?x61) 0)))
 (let ((?x46 (* k k)))
 (let ((?x224 (* (- 1) ?x46)))
 (let ((?x41 (* 5 k)))
 (let (($x167 (and $x144 (= (+ ?x37 (* 9 (* n c)) ?x41 ?x223 ?x224) 4) (= (+ ?x261 (* (- 1) (* n k)) k ?x263) 0) $x893 (or $x362 $x371 $x757 (not (= ?x471 13)) (not (= ?x113 2))))))
 (let ((?x56 (* 2 n)))
 (let ((?x438 (* ?x816 ?x74)))
 (let ((?x575 (* (- 3) c)))
 (let (($x396 (or $x362 $x371 (not (= (+ ?x133 ?x393 ?x112 ?x453 ?x45 ?x80) (- 13))) (not (= (+ ?x575 (* (- 4) k) ?x438 ?x468 ?x56) (- 2))) $x757)))
 (let (($x553 (= (+ ?x133 (* (- 9) (* n c)) (* (- 5) k) ?x45 ?x46) (- 4))))
 (let (($x443 (and $x144 $x553 (= (+ ?x575 (* n k) ?x857 ?x56) 0) $x893 $x396)))
 (rewrite (= $x443 $x167)))))))))))))))))))))))))))))))))))))))))
 ))
 (let (($x109 (exists ((c Int) (k Int) (m Int) (n Int) )(! (let ((?x66 (+ n 1)))
 (let ((?x74 (+ k m)))
 (let ((?x71 (+ c k)))
 (let ((?x102 (- (* (- 1) ?x71 ?x71 ?x74 ?x74 ?x66 ?x66) (* 6 ?x66 ?x66))))
 (let ((?x80 (* ?x74 ?x74)))
 (let ((?x78 (- (- (- 4 (* 18 ?x71)) (* 9 ?x71 ?x66)) (* 5 ?x74))))
 (let ((?x81 (+ ?x78 (* 9 ?x66) ?x80)))
 (let (($x90 (= (+ (- (+ (* (- 3) ?x71) (* ?x74 ?x66)) ?x74) (* 2 ?x66)) 0)))
 (let (($x107 (or (not (= (- (+ (- 6) m 6) (* 6 ?x66)) 0)) (not (= ?x81 0)) (not $x90) (not (= (+ (- (* 3 ?x66 ?x66) ?x74) (* 3 ?x66)) 0)) (not (= (* ?x81 (- ?x102 (* 3 ?x71 ?x74 ?x66 ?x66))) 0)))))
 (let (($x58 (= (+ (- (+ (* (- 3) c) (* k n)) k) (* 2 n)) 0)))
 (let ((?x46 (* k k)))
 (let ((?x45 (* 9 n)))
 (let ((?x41 (* 5 k)))
 (let ((?x47 (+ (- (- (- 4 (* 18 c)) (* 9 c n)) ?x41) ?x45 ?x46)))
 (and (= (- (+ (- 6) m) (* 6 n)) 0) (= ?x47 0) $x58 (= (+ (- (* 3 n n) k) (* 3 n)) 0) $x107))))))))))))))) :qid k!38))
 ))
 (let ((?x870 (lambda ((c Int) (k Int) (m Int) (n Int) )(let ((?x61 (* 3 n)))
 (let ((?x468 (* (- 1) m)))
 (let ((?x857 (* (- 1) k)))
 (let (($x752 (= (+ (* 3 (* (+ 1 n) (+ 1 n))) ?x857 ?x468 ?x61) (- 3))))
 (let (($x757 (not $x752)))
 (let ((?x56 (* 2 n)))
 (let ((?x74 (+ k m)))
 (let ((?x816 (+ 1 n)))
 (let ((?x438 (* ?x816 ?x74)))
 (let ((?x575 (* (- 3) c)))
 (let ((?x80 (* ?x74 ?x74)))
 (let ((?x45 (* 9 n)))
 (let ((?x453 (* (- 5) m)))
 (let ((?x71 (+ c k)))
 (let ((?x924 (* ?x816 ?x71)))
 (let ((?x112 (* (- 9) ?x924)))
 (let ((?x393 (* (- 23) k)))
 (let ((?x133 (* (- 18) c)))
 (let ((?x434 (* (- 1) (* ?x816 ?x816 ?x74 ?x74 ?x71 ?x71))))
 (let ((?x942 (* (+ ?x434 (* (- 6) (* ?x816 ?x816)) (* (- 3) (* ?x816 ?x816 ?x74 ?x71))) (+ 13 ?x133 ?x393 ?x112 ?x453 ?x45 ?x80))))
 (let (($x371 (not (= ?x942 0))))
 (let (($x144 (= (+ m (* (- 6) n)) 6)))
 (let (($x362 (not $x144)))
 (let (($x396 (or $x362 $x371 (not (= (+ ?x133 ?x393 ?x112 ?x453 ?x45 ?x80) (- 13))) (not (= (+ ?x575 (* (- 4) k) ?x438 ?x468 ?x56) (- 2))) $x757)))
 (let (($x893 (= (+ (* 3 (* n n)) ?x857 ?x61) 0)))
 (let (($x553 (= (+ ?x133 (* (- 9) (* n c)) (* (- 5) k) ?x45 (* k k)) (- 4))))
 (let (($x443 (and $x144 $x553 (= (+ ?x575 (* n k) ?x857 ?x56) 0) $x893 $x396)))
 (let ((?x102 (- (* (- 1) ?x71 ?x71 ?x74 ?x74 (+ n 1) (+ n 1)) (* 6 (+ n 1) (+ n 1)))))
 (let ((?x78 (- (- (- 4 (* 18 ?x71)) (* 9 ?x71 (+ n 1))) (* 5 ?x74))))
 (let ((?x81 (+ ?x78 (* 9 (+ n 1)) ?x80)))
 (let ((?x104 (* ?x81 (- ?x102 (* 3 ?x71 ?x74 (+ n 1) (+ n 1))))))
 (let ((?x95 (+ (- (* 3 (+ n 1) (+ n 1)) ?x74) (* 3 (+ n 1)))))
 (let ((?x89 (+ (- (+ (* (- 3) ?x71) (* ?x74 (+ n 1))) ?x74) (* 2 (+ n 1)))))
 (let (($x70 (not (= (- (+ (- 6) m 6) (* 6 (+ n 1))) 0))))
 (let (($x107 (or $x70 (not (= ?x81 0)) (not (= ?x89 0)) (not (= ?x95 0)) (not (= ?x104 0)))))
 (let ((?x46 (* k k)))
 (let ((?x41 (* 5 k)))
 (let ((?x47 (+ (- (- (- 4 (* 18 c)) (* 9 c n)) ?x41) ?x45 ?x46)))
 (let (($x108 (and (= (- (+ (- 6) m) (* 6 n)) 0) (= ?x47 0) (= (+ (- (+ (* (- 3) c) (* k n)) k) ?x56) 0) (= (+ (- (* 3 n n) k) ?x61) 0) $x107)))
 (rewrite (= $x108 $x443))))))))))))))))))))))))))))))))))))))))))
 ))
 (let ((@x110 (asserted $x109)))
 (let ((@x341 (mp (mp @x110 (quant-intro (proof-bind ?x870) (= $x109 $x916)) $x916) (rewrite (= $x916 $x916)) $x916)))
 (let ((@x394 (mp (mp @x341 (quant-intro (proof-bind ?x903) (= $x916 $x176)) $x176) (quant-intro (proof-bind ?x406) (= $x176 $x402)) $x402)))
 (let ((@x822 (mp (mp~ @x394 (sk (~ $x402 $x413)) $x413) (rewrite (= $x413 $x457)) $x457)))
 (let ((@x346 (and-elim @x822 $x367)))
 (let ((@x168 (unit-resolution ((_ th-lemma arith triangle-eq) (or (not $x367) $x384)) @x346 $x384)))
 (let (($x840 (>= ?x909 (- 4))))
 (let ((@x179 (unit-resolution ((_ th-lemma arith triangle-eq) (or (not $x367) $x840)) @x346 $x840)))
 (let (($x239 (<= ?x590 0)))
 (let (($x481 (<= ?x405 0)))
 (let ((@x129 (and-elim @x822 $x418)))
 (let ((@x423 (unit-resolution ((_ th-lemma arith triangle-eq) (or (not $x418) $x481)) @x129 $x481)))
 (let (($x480 (>= ?x405 0)))
 (let ((@x403 (unit-resolution ((_ th-lemma arith triangle-eq) (or (not $x418) $x480)) @x129 $x480)))
 (let (($x357 (<= ?x775 (- 6))))
 (let ((@x871 (and-elim @x822 $x791)))
 (let ((@x136 (unit-resolution ((_ th-lemma arith triangle-eq) (or $x824 $x357)) @x871 $x357)))
 (let (($x379 (>= ?x775 (- 6))))
 (let ((@x873 (unit-resolution ((_ th-lemma arith triangle-eq) (or $x824 $x379)) @x871 $x379)))
 (let (($x409 (<= ?x812 0)))
 (let ((@x906 (and-elim @x822 $x473)))
 (let ((@x947 (unit-resolution ((_ th-lemma arith triangle-eq) (or (not $x473) $x409)) @x906 $x409)))
 (let (($x154 (>= ?x812 0)))
 (let ((@x592 (unit-resolution ((_ th-lemma arith triangle-eq) (or (not $x473) $x154)) @x906 $x154)))
 (let ((@x535 (hypothesis (not $x239))))
 (let ((@x573 ((_ th-lemma arith) @x535 @x535 @x873 @x136 @x403 @x423 @x592 @x947 @x403 @x423 @x403 @x423 @x179 @x168 @x403 @x423 @x873 @x136 @x403 @x423 false)))
 (let (($x2023 (>= ?x590 0)))
 (let (($x1027 (>= ?x407 0)))
 (let (($x1069 (not $x1027)))
 (let (($x227 (>= n!0 (- 1))))
 (let (($x115 (not $x227)))
 (let (($x417 (>= n!0 0)))
 (let (($x285 (not $x417)))
 (let (($x1018 (<= ?x407 0)))
 (let (($x1023 (<= ?x407 1)))
 (let (($x1407 (<= ?x407 2)))
 (let (($x1324 (<= m!1 12)))
 (let (($x2139 (<= n!0 2)))
 (let (($x1172 (<= n!0 1)))
 (let (($x233 (<= n!0 0)))
 (let (($x1420 (not $x1407)))
 (let (($x1097 (not $x1023)))
 (let (($x809 (not $x1018)))
 (let (($x242 (not $x233)))
 (let ((@x284 (hypothesis $x242)))
 (let (($x901 (<= ?x149 (- 2))))
 (let (($x784 (not $x901)))
 (let (($x620 (>= ?x149 (- 2))))
 (let ((@x568 ((_ th-lemma arith) (hypothesis (not $x620)) @x592 @x947 @x179 @x168 @x179 @x168 @x403 @x423 @x179 @x168 @x403 @x423 @x179 @x168 @x873 @x136 @x403 @x423 @x592 @x947 @x403 @x423 false)))
 (let ((@x1336 ((_ th-lemma arith) @x873 @x136 @x403 @x423 (lemma @x568 $x620) (hypothesis $x901) @x592 @x947 false)))
 (let ((@x1019 (hypothesis $x1023)))
 (let ((@x1011 (hypothesis $x809)))
 (let ((@x1028 (hypothesis $x784)))
 (let (($x469 (>= ?x779 1)))
 (let ((@x762 (hypothesis (not $x469))))
 (let ((@x1024 (lemma ((_ th-lemma arith) @x1011 @x168 @x1011 @x762 @x1011 @x423 @x1011 @x762 @x403 @x423 false) (or $x1018 $x469))))
 (let ((@x1012 (unit-resolution @x1024 @x762 $x1018)))
 (let ((?x214 (+ (* 10 n!0) (* (- 10) c!3) ?x832 (* (- 5) ?x411) (* 8 ?x879) ?x889)))
 (let (($x750 (>= ?x214 14)))
 (let (($x551 (not $x750)))
 (let ((@x1002 ((_ th-lemma arith) (hypothesis $x750) @x762 @x403 @x423 @x179 @x168 @x403 @x423 @x873 @x136 @x403 @x423 @x592 @x947 @x403 @x423 @x403 @x423 @x179 @x168 false)))
 (let ((@x1082 (unit-resolution (lemma @x1002 (or $x551 $x469)) @x762 $x551)))
 (let (($x1017 (>= n!0 (- 2))))
 (let (($x1090 (>= n!0 (- 3))))
 (let ((@x209 (hypothesis $x551)))
 (let (($x1081 (not $x1090)))
 (let ((@x1021 (hypothesis $x1081)))
 (let ((@x998 (lemma ((_ th-lemma arith) @x1021 @x1021 @x209 @x179 @x403 @x423 false) (or $x1090 $x750))))
 (let (($x377 (>= ?x889 0)))
 (let ((@x827 (lemma ((_ th-lemma arith farkas 1) (hypothesis (not $x377)) false) $x377)))
 (let (($x1092 (not $x1017)))
 (let ((@x1079 (hypothesis $x1092)))
 (let ((@x1095 (hypothesis $x1090)))
 (let ((@x1093 (lemma ((_ th-lemma arith farkas 5/4 5 9/4 15/4 3 3 3 3 1) @x179 @x403 @x209 @x1079 @x1095 @x1079 @x1095 @x1079 @x827 false) (or $x1081 $x750 $x1017))))
 (let ((@x810 (hypothesis $x1017)))
 (let ((@x1085 (hypothesis $x1069)))
 (let ((@x1094 (lemma ((_ th-lemma arith farkas 4 4 1 8 8 8 8 1 1) @x810 @x1085 @x179 @x810 @x1085 @x810 @x1085 @x209 @x810 false) (or $x1092 $x1027 $x750))))
 (let ((@x1086 (unit-resolution @x1094 (unit-resolution @x1093 (unit-resolution @x998 @x1082 $x1090) @x1082 $x1017) @x1082 $x1027)))
 (let ((@x1015 ((_ th-lemma arith) @x1086 @x1012 @x403 @x423 @x1086 @x1012 @x1086 @x1012 @x1086 @x1012 @x1086 @x1012 @x403 @x423 @x403 @x423 @x1086 @x1012 @x403 @x423 @x1086 @x1012 @x592 @x947 @x1086 @x1012 @x179 @x168 false)))
 (let ((@x1029 ((_ th-lemma arith farkas 1 3 8 2 6 6 6 6 6 6 6 1 1 1 1 1 1 1) @x592 (lemma @x1015 $x469) @x1019 @x403 @x136 @x1011 @x1028 @x947 @x423 @x1011 @x1019 @x136 @x1011 @x1028 @x947 @x423 @x1011 @x1019 false)))
 (let ((@x4099 (unit-resolution (lemma @x1029 (or $x1097 $x1018 $x901)) (lemma @x1336 $x784) (or $x1097 $x1018))))
 (let ((@x4076 (unit-resolution @x4099 (unit-resolution ((_ th-lemma arith assign-bounds 1) (or $x233 $x809)) @x284 $x809) $x1097)))
 (let ((@x1418 (hypothesis $x1407)))
 (let ((@x1107 (hypothesis $x1097)))
 (let ((@x1419 ((_ th-lemma arith gcd-test -2/3 -2/3 -1 -1 -1 -1 -1/3 -1/3 -1/3 -1/3 1/3 1/3) @x1107 @x1418 @x1107 @x1418 @x1107 @x1418 @x1107 @x1418 @x1107 @x1418 @x592 @x947 false)))
 (let ((@x1422 (lemma @x1419 (or $x1420 $x1023))))
 (let (($x1780 (<= k!2 6)))
 (let (($x1930 (>= c!3 1)))
 (let (($x1995 (not $x1930)))
 (let (($x3652 (<= c!3 1)))
 (let ((@x4117 ((_ th-lemma arith) (hypothesis (>= c!3 2)) @x403 @x423 @x403 @x423 @x179 @x168 @x179 @x168 @x592 @x947 @x179 @x168 @x592 @x947 @x403 @x423 @x179 @x168 @x403 @x423 false)))
 (let ((@x4078 (unit-resolution ((_ th-lemma arith farkas 1 1) (or (>= c!3 2) $x3652)) (lemma @x4117 (not (>= c!3 2))) $x3652)))
 (let ((@x3741 (hypothesis $x3652)))
 (let ((@x3740 (hypothesis $x1930)))
 (let ((@x3764 ((_ th-lemma arith) @x3740 @x3741 @x3740 @x3741 @x873 @x136 @x403 @x423 @x179 @x168 @x3740 @x3741 @x3740 @x3741 @x3740 @x3741 @x3740 @x3741 @x403 @x423 @x403 @x423 @x3740 @x3741 @x3740 @x3741 @x3740 @x3741 @x3740 @x3741 @x3740 @x3741 @x3740 @x3741 @x179 @x168 @x3740 @x3741 @x179 @x168 @x179 @x168 @x3740 @x3741 @x3740 @x3741 @x3740 @x3741 @x3740 @x3741 @x592 @x947 false)))
 (let ((@x2009 (hypothesis $x1995)))
 (let ((@x2019 ((_ th-lemma arith) @x284 (hypothesis (not $x1780)) @x947 @x2009 @x2009 @x284 @x947 @x284 false)))
 (let ((@x4134 (unit-resolution (lemma @x2019 (or $x1930 $x233 $x1780)) @x284 (unit-resolution (lemma @x3764 (or (not $x3652) $x1995)) @x4078 $x1995) $x1780)))
 (let (($x1184 (>= ?x879 0)))
 (let ((@x4135 (unit-resolution ((_ th-lemma arith assign-bounds 1 3 3) (or (not $x1780) (not $x481) (not $x1184) $x2139)) (lemma ((_ th-lemma arith farkas 1) (hypothesis (not $x1184)) false) $x1184) @x423 (or (not $x1780) $x2139))))
 (let ((@x2046 (hypothesis $x2139)))
 (let (($x1200 (not $x1324)))
 (let ((@x2184 (hypothesis $x1200)))
 (let ((@x2153 ((_ th-lemma arith gcd-test 13/3 13/3 -1 -1 -2 -2 -2 -2 -2 -2 4/3 4/3 -16 -16 -16 -16 -16 -16 -16 -16 -28/9 -28/9 -56/3 -10/3 -10/3 -10/3 -10/3 -10/3 -10/3) @x403 @x423 @x179 @x168 @x2184 @x873 @x2046 @x2184 @x873 @x2046 @x592 @x947 @x2184 @x873 @x2184 @x873 @x2046 @x2184 @x873 @x2046 @x2184 @x873 @x2046 @x2184 @x873 @x2046 @x2184 @x873 @x2046 false)))
 (let ((@x2155 (lemma @x2153 (or (not $x2139) $x1324))))
 (let ((@x4144 (unit-resolution ((_ th-lemma arith assign-bounds 1 6) (or $x1200 (not $x357) $x1407)) @x136 (or $x1200 $x1407))))
 (let ((@x4101 (unit-resolution @x4144 (unit-resolution @x2155 (unit-resolution @x4135 @x4134 $x2139) $x1324) (unit-resolution @x1422 @x4076 $x1420) false)))
 (let ((@x4184 (unit-resolution ((_ th-lemma arith farkas 1 1) (or $x2139 (not $x1172))) (unit-resolution ((_ th-lemma arith farkas 1 1) (or $x1172 $x242)) (lemma @x4101 $x233) $x1172) $x2139)))
 (let ((@x4187 (unit-resolution @x1422 (unit-resolution @x4144 (unit-resolution @x2155 @x4184 $x1324) $x1407) $x1023)))
 (let ((@x4189 (unit-resolution ((_ th-lemma arith assign-bounds -1) (or $x285 $x809)) (unit-resolution @x4099 @x4187 $x1018) $x285)))
 (let ((@x289 (hypothesis $x285)))
 (let ((@x563 (hypothesis $x227)))
 (let ((@x125 ((_ th-lemma arith farkas 1/4 2/3 -13/12 -1/4 1/3 1/3 -1/3 1 1) @x168 @x423 @x563 ((_ th-lemma arith gomory-cut 1/4 1/5 1 3/5 -3/4) @x179 @x827 @x403 @x289 @x289 (>= ?x214 3)) @x563 @x289 @x592 @x563 @x289 false)))
 (let ((@x4193 (unit-resolution ((_ th-lemma arith assign-bounds 1) (or $x227 $x1069)) (unit-resolution (lemma @x125 (or $x115 $x417)) @x4189 $x115) $x1069)))
 (let ((@x4194 ((_ th-lemma arith) @x4193 (hypothesis (not $x2023)) @x403 @x423 @x873 @x136 @x403 @x423 @x179 @x168 @x403 @x423 @x592 @x947 @x179 @x168 @x592 @x947 @x403 @x423 @x179 @x168 @x592 @x947 @x592 @x947 @x592 @x947 @x403 @x423 @x179 @x168 @x179 @x168 @x403 @x423 @x592 @x947 @x592 @x947 @x403 @x423 @x179 @x168 @x403 @x423 @x873 @x136 @x403 @x423 @x592 @x947 @x873 @x136 @x179 @x168 @x873 @x136 @x179 @x168 @x403 @x423 false)))
 ((_ th-lemma arith) @x179 @x168 @x873 @x136 @x873 @x136 @x179 @x168 @x403 @x423 @x592 @x947 @x179 @x168 @x403 @x423 @x873 @x136 @x403 @x423 @x592 @x947 @x873 @x136 @x403 @x423 @x179 @x168 @x403 @x423 @x179 @x168 @x873 @x136 @x873 @x136 @x403 @x423 @x179 @x168 @x592 @x947 @x873 @x136 @x403 @x423 @x179 @x168 @x179 @x168 @x403 @x423 @x873 @x136 @x403 @x423 @x179 @x168 @x403 @x423 @x179 @x168 @x179 @x168 @x592 @x947 @x873 @x136 @x403 @x423 @x873 @x136 @x403 @x423 @x873 @x136 @x179 @x168 @x592 @x947 @x873 @x136 @x403 @x423 (lemma @x4194 $x2023) (lemma @x573 $x239) @x179 @x168 false))))))))))))))))))))))))))))))))))))))))))))))))))))))))))))))))))))))))))))))))))))))))))))))))))))))))))))))))))))))))))))))))))))))))))))))))))))))))))))))))))))))))))))))))))))))))

(:added-eqs                 204
 :arith-assert-diseq        72
 :arith-assert-lower        3030
 :arith-assert-upper        935
 :arith-bound-prop          31
 :arith-branch-var          146
 :arith-conflicts           123
 :arith-eq-adapter          24
 :arith-fixed-eqs           294
 :arith-gcd-tests           2159
 :arith-gomory-cuts         115
 :arith-grobner             189
 :arith-ineq-splits         146
 :arith-max-min             18810
 :arith-nonlinear-bounds    782
 :arith-nonlinear-horner    2582
 :arith-num-rows            26
 :arith-offset-eqs          12
 :arith-patches             333
 :arith-patches_succ        42
 :arith-pivots              5351
 :arith-pseudo-nonlinear    324
 :arith-row-summations      53532
 :arith-tableau-max-columns 85
 :arith-tableau-max-rows    26
 :conflicts                 146
 :decisions                 1102
 :del-clause                376
 :final-checks              710
 :max-memory                4.78
 :memory                    3.57
 :minimized-lits            26
 :mk-bool-var               775
 :mk-clause                 481
 :num-allocs                254070058
 :num-checks                1
 :propagations              1187
 :restarts                  1
 :rlimit-count              3531827
 :time                      1.71
 :total-time                1.72)
